
--- Job assign q6.gms Start 11/27/23 01:32:34 45.1.0 88bbff72 WEX-WEI x86 64bit/MS Windows
--- Applying:
    C:\GAMS\45\gmsprmNT.txt
--- GAMS Parameters defined
    Input "C:\Users\nourh\OneDrive\Documents\GAMS\Studio\workspace\assign q6.gms"
    PageSize 0
    ScrDir C:\Users\nourh\OneDrive\Documents\GAMS\Studio\workspace\225a\
    SysDir C:\GAMS\45\
    LogOption 3
    ErrMsg 1
    ErrorLog 99
    IDE 1
    LstTitleLeftAligned 1
Licensee: GAMS Demo, for EULA and demo limitations see   G230930/0001CB-GEN
          https://www.gams.com/latest/docs/UG%5FLicense.html         DC0000
          C:\GAMS\45\gamslice.txt
          Demo license for demonstration and instructional purposes only
Processor information: 1 socket(s), 8 core(s), and 16 thread(s) available
GAMS 45.1.0   Copyright (C) 1987-2023 GAMS Development. All rights reserved
--- Starting compilation
--- assign q6.gms(22) 3 Mb
--- Starting execution: elapsed 0:00:00.006
--- Generating LP model ManufacturingPlant
--- assign q6.gms(20) 4 Mb
---   2 rows  3 columns  5 non-zeroes
--- Range statistics (absolute non-zero finite values)
--- RHS       [min, max] : [ 6.000E+00, 6.000E+00] - Zero values observed as well
--- Bound     [min, max] : [        NA,        NA]
--- Matrix    [min, max] : [ 1.000E+00, 3.000E+00]
--- Executing CPLEX (Solvelink=2): elapsed 0:00:00.009

IBM ILOG CPLEX   45.1.0 88bbff72 Oct 14, 2023          WEI x86 64bit/MS Window

*** This solver runs with a demo license. No commercial use.
--- GMO setup time: 0.00s
--- GMO memory 0.50 Mb (peak 0.50 Mb)
--- Dictionary memory 0.00 Mb
--- Cplex 22.1.1.0 link memory 0.00 Mb (peak 0.00 Mb)
--- Starting Cplex

Version identifier: 22.1.1.0 | 2022-11-27 | 9160aff4d
CPXPARAM_Advance                                 0
CPXPARAM_Simplex_Display                         2
CPXPARAM_Threads                                 1
CPXPARAM_MIP_Display                             4
CPXPARAM_MIP_Pool_Capacity                       0
CPXPARAM_MIP_Tolerances_AbsMIPGap                0
Dual infeasible due to empty column 'UnitsProduced(Gadget)'.
Presolve time = 0.00 sec. (0.00 ticks)

--- LP status (4): unbounded or infeasible.
--- Cplex Time: 0.00sec (det. 0.00 ticks)

*** WARNING: Presolve found the problem infeasible or unbounded
--- Cplex diagnoses the model to be either infeasible or unbounded.
--- There is no such GAMS Model Status so returning with a status of infeasible.
--- Model has been proven to be either infeasible or unbounded
--- Reading solution for model ManufacturingPlant
--- Executing after solve: elapsed 0:00:00.037
--- assign q6.gms(22) 4 Mb
*** Status: Normal completion
--- Job assign q6.gms Stop 11/27/23 01:32:34 elapsed 0:00:00.037
